WARNING: for repeatability, setting FPU to use double precision
============================[ Problem Statistics ]=============================
|                                                                             |
|  Number of variables:            50                                         |
|  Number of clauses:             218                                         |
|  Parse time:                   0.00 s                                       |
|                                                                             |
============================[ Search Statistics ]==============================
| Conflicts |          ORIGINAL         |          LEARNT          | Progress |
|           |    Vars  Clauses Literals |    Limit  Clauses Lit/Cl |          |
===============================================================================
===============================================================================
restarts              : 1
conflicts             : 25             (17870 /sec)
decisions             : 40             (0.00 % random) (28592 /sec)
propagations          : 384            (274482 /sec)
conflict literals     : 110            (12.70 % deleted)
Memory used           : 20.00 MB
CPU time              : 0.001399 s

SATISFIABLE
